unsat
((set-logic NIA)
(declare-fun c!3 () Int)
(declare-fun k!2 () Int)
(declare-fun n!0 () Int)
(declare-fun m!1 () Int)
(proof
(let (($x1953 (<= c!3 69)))
 (let ((?x887 (* (- 1) k!2)))
 (let ((?x821 (* n!0 k!2)))
 (let ((?x883 (* (- 3) c!3)))
 (let ((?x175 (* 2 n!0)))
 (let ((?x898 (+ ?x175 ?x883 ?x821 ?x887)))
 (let (($x801 (<= ?x898 0)))
 (let (($x812 (= ?x898 0)))
 (let ((?x398 (* (- 1) m!1)))
 (let ((?x774 (+ (* 6 n!0) ?x398)))
 (let (($x773 (= ?x774 (- 6))))
 (let (($x416 (not $x773)))
 (let ((?x868 (* 11 k!2)))
 (let ((?x824 (* k!2 k!2)))
 (let ((?x450 (* (- 108) ?x824)))
 (let ((?x373 (* 2 m!1)))
 (let ((?x762 (* (- 216) (* c!3 k!2))))
 (let ((?x810 (* 9 c!3)))
 (let ((?x370 (* (- 36) (* c!3 c!3 m!1))))
 (let ((?x759 (* (- 108) (* c!3 c!3))))
 (let ((?x846 (+ c!3 k!2)))
 (let ((?x864 (+ m!1 k!2)))
 (let ((?x748 (+ 1 n!0)))
 (let ((?x422 (* (- 3) (* c!3 c!3 m!1 m!1))))
 (let ((?x482 (+ (* (- 3) (* m!1 m!1 k!2 k!2)) (* (- 72) (* c!3 m!1 k!2)) ?x422 (* (- 36) (* m!1 k!2 k!2)) (* 9 (* ?x748 ?x748 ?x864 ?x864 ?x846 ?x846)) ?x759 ?x370 ?x810 (* (- 6) (* c!3 m!1 m!1 k!2)) ?x762 ?x373 ?x450 ?x868)))
 (let (($x479 (= (* ?x482 (+ 2 ?x175 ?x883 (* n!0 m!1) ?x821 (* (- 3) k!2))) 0)))
 (let ((?x509 (* n!0 c!3)))
 (let ((?x317 (* (- 9) ?x509)))
 (let ((?x393 (* 9 n!0)))
 (let ((?x405 (* m!1 m!1)))
 (let ((?x424 (+ ?x405 ?x393 (* (- 27) c!3) ?x317 (* (- 5) m!1) (* (- 9) ?x821) ?x824 (* (- 32) k!2) (* 2 (* m!1 k!2)))))
 (let (($x312 (or (not (= (+ ?x393 ?x398 (* 3 (* n!0 n!0)) ?x887) (- 6))) (not (= ?x424 (- 13))) (not (= (+ ?x175 ?x883 (* n!0 m!1) ?x821 (* (- 3) k!2)) (- 2))) (not $x479) $x416)))
 (let ((?x828 (* n!0 n!0)))
 (let ((?x842 (* 3 ?x828)))
 (let ((?x836 (* 3 n!0)))
 (let ((?x850 (+ ?x836 ?x842 ?x887)))
 (let (($x805 (= ?x850 0)))
 (let ((?x191 (* (- 18) c!3)))
 (let ((?x409 (+ ?x393 ?x191 ?x317 ?x824 (* (- 5) k!2))))
 (let (($x231 (= ?x409 (- 4))))
 (let (($x341 (and $x773 $x231 $x812 $x805 $x312)))
 (let ((?x390 (+ ?x810 ?x868 ?x373 ?x450 (* 9 (* ?x748 ?x748 (+ k!2 m!1) (+ k!2 m!1) ?x846 ?x846)) ?x422 (* (- 6) (* c!3 k!2 m!1 m!1)) (* (- 3) (* k!2 k!2 m!1 m!1)) ?x759 ?x762 ?x370 (* (- 72) (* c!3 k!2 m!1)) (* (- 36) (* k!2 k!2 m!1)))))
 (let ((?x151 (* ?x390 (+ 2 ?x883 (* (- 3) k!2) ?x175 (* k!2 n!0) (* m!1 n!0)))))
 (let ((?x131 (* k!2 n!0)))
 (let ((?x359 (* (- 1) ?x131)))
 (let ((?x880 (* (- 2) n!0)))
 (let ((?x899 (* 3 c!3)))
 (let (($x862 (= (+ ?x899 (* 3 k!2) ?x880 ?x359 (* (- 1) (* m!1 n!0))) 2)))
 (let ((?x436 (* 9 (* c!3 n!0))))
 (let ((?x777 (* (- 1) ?x824)))
 (let ((?x825 (* (- 9) n!0)))
 (let ((?x420 (+ (* 27 c!3) (* 32 k!2) (* 5 m!1) ?x825 ?x777 (* 9 ?x131) ?x436 (* (- 2) (* k!2 m!1)) (* (- 1) ?x405))))
 (let (($x784 (or (not (= (+ k!2 m!1 ?x825 (* (- 3) ?x828)) 6)) (not (= (+ m!1 (* (- 6) n!0)) 6)) (not (= ?x420 13)) (not $x862) (not (= ?x151 0)))))
 (let (($x161 (= (+ m!1 (* (- 6) n!0)) 6)))
 (let (($x783 (and $x161 (= (+ (* 18 c!3) (* 5 k!2) ?x825 ?x777 ?x436) 4) (= (+ ?x899 k!2 ?x880 ?x359) 0) (= (+ k!2 (* (- 3) n!0) (* (- 3) ?x828)) 0) $x784)))
 (let (($x600 (exists ((c Int) (k Int) (m Int) (n Int) )(! (let ((?x374 (* m n)))
 (let ((?x52 (* k n)))
 (let ((?x56 (* 2 n)))
 (let ((?x233 (* (- 3) c)))
 (let ((?x539 (+ 2 ?x233 (* (- 3) k) ?x56 ?x52 ?x374)))
 (let ((?x894 (* (- 36) (* k k m))))
 (let ((?x893 (* (- 72) (* c k m))))
 (let ((?x891 (* (- 36) (* c c m))))
 (let ((?x889 (* (- 216) (* c k))))
 (let ((?x819 (* (- 108) (* c c))))
 (let ((?x882 (* (- 3) (* k k m m))))
 (let ((?x895 (* (- 6) (* c k m m))))
 (let ((?x867 (* (- 3) (* c c m m))))
 (let ((?x71 (+ c k)))
 (let ((?x74 (+ k m)))
 (let ((?x387 (+ 1 n)))
 (let ((?x497 (* 9 (* ?x387 ?x387 ?x74 ?x74 ?x71 ?x71))))
 (let ((?x46 (* k k)))
 (let ((?x834 (* (- 108) ?x46)))
 (let ((?x732 (* 2 m)))
 (let ((?x740 (* 11 k)))
 (let ((?x726 (* 9 c)))
 (let ((?x338 (+ ?x726 ?x740 ?x732 ?x834 ?x497 ?x867 ?x895 ?x882 ?x819 ?x889 ?x891 ?x893 ?x894)))
 (let ((?x265 (* (- 1) ?x52)))
 (let ((?x264 (* (- 2) n)))
 (let ((?x262 (* 3 c)))
 (let (($x555 (not (= (+ ?x262 (* 3 k) ?x264 ?x265 (* (- 1) ?x374)) 2))))
 (let ((?x162 (* 9 (* c n))))
 (let ((?x225 (* (- 1) ?x46)))
 (let ((?x224 (* (- 9) n)))
 (let ((?x437 (* 5 m)))
 (let ((?x525 (+ (* 27 c) (* 32 k) ?x437 ?x224 ?x225 (* 9 ?x52) ?x162 (* (- 2) (* k m)) (* (- 1) (* m m)))))
 (let (($x529 (not (= ?x525 13))))
 (let (($x145 (= (+ m (* (- 6) n)) 6)))
 (let (($x363 (not $x145)))
 (let (($x357 (or (not (= (+ k m ?x224 (* (- 3) (* n n))) 6)) $x363 $x529 $x555 (not (= (* ?x338 ?x539) 0)))))
 (let (($x303 (= (+ k (* (- 3) n) (* (- 3) (* n n))) 0)))
 (let (($x267 (= (+ ?x262 k ?x264 ?x265) 0)))
 (let (($x222 (= (+ (* 18 c) (* 5 k) ?x224 ?x225 ?x162) 4)))
 (and $x145 $x222 $x267 $x303 $x357)))))))))))))))))))))))))))))))))))))))) :qid k!38))
 ))
 (let (($x352 (exists ((c Int) (k Int) (m Int) (n Int) )(! (let ((?x264 (* (- 2) n)))
 (let ((?x262 (* 3 c)))
 (let ((?x323 (+ ?x262 (* 4 k) (* (- 1) (* (+ 1 n) (+ k m))) m ?x264)))
 (let ((?x61 (* 3 n)))
 (let ((?x848 (* (- 1) m)))
 (let ((?x870 (* (- 1) k)))
 (let (($x531 (= (+ (* 3 (* (+ 1 n) (+ 1 n))) ?x870 ?x848 ?x61) (- 3))))
 (let (($x541 (not $x531)))
 (let ((?x56 (* 2 n)))
 (let ((?x74 (+ k m)))
 (let ((?x387 (+ 1 n)))
 (let ((?x772 (* ?x387 ?x74)))
 (let ((?x869 (* (- 4) k)))
 (let ((?x233 (* (- 3) c)))
 (let ((?x336 (* (- 3) (* (+ 6 m) (+ 6 m) (+ c k) (+ c k)))))
 (let ((?x732 (* 2 m)))
 (let ((?x740 (* 11 k)))
 (let ((?x726 (* 9 c)))
 (let ((?x497 (* 9 (* ?x387 ?x387 ?x74 ?x74 (+ c k) (+ c k)))))
 (let ((?x793 (* (+ ?x497 ?x726 ?x740 ?x732 ?x336) (+ 2 ?x233 ?x869 ?x772 ?x848 ?x56))))
 (let (($x536 (not (= ?x793 0))))
 (let ((?x224 (* (- 9) n)))
 (let ((?x437 (* 5 m)))
 (let ((?x37 (* 18 c)))
 (let ((?x382 (+ ?x37 (* 23 k) (* 9 (* ?x387 (+ c k))) ?x437 ?x224 (* (- 1) (* ?x74 ?x74)))))
 (let (($x145 (= (+ m (* (- 6) n)) 6)))
 (let (($x363 (not $x145)))
 (let (($x411 (= (+ (* 3 (* n n)) ?x870 ?x61) 0)))
 (let ((?x46 (* k k)))
 (let ((?x225 (* (- 1) ?x46)))
 (let ((?x41 (* 5 k)))
 (and $x145 (= (+ ?x37 (* 9 (* n c)) ?x41 ?x224 ?x225) 4) (= (+ ?x262 (* (- 1) (* n k)) k ?x264) 0) $x411 (or $x363 (not (= ?x382 13)) $x536 $x541 (not (= ?x323 2))))))))))))))))))))))))))))))))))) :qid k!38))
 ))
 (let ((?x608 (lambda ((c Int) (k Int) (m Int) (n Int) )(let ((?x374 (* m n)))
 (let ((?x52 (* k n)))
 (let ((?x56 (* 2 n)))
 (let ((?x233 (* (- 3) c)))
 (let ((?x539 (+ 2 ?x233 (* (- 3) k) ?x56 ?x52 ?x374)))
 (let ((?x894 (* (- 36) (* k k m))))
 (let ((?x893 (* (- 72) (* c k m))))
 (let ((?x891 (* (- 36) (* c c m))))
 (let ((?x889 (* (- 216) (* c k))))
 (let ((?x819 (* (- 108) (* c c))))
 (let ((?x882 (* (- 3) (* k k m m))))
 (let ((?x895 (* (- 6) (* c k m m))))
 (let ((?x867 (* (- 3) (* c c m m))))
 (let ((?x71 (+ c k)))
 (let ((?x74 (+ k m)))
 (let ((?x387 (+ 1 n)))
 (let ((?x497 (* 9 (* ?x387 ?x387 ?x74 ?x74 ?x71 ?x71))))
 (let ((?x46 (* k k)))
 (let ((?x834 (* (- 108) ?x46)))
 (let ((?x732 (* 2 m)))
 (let ((?x740 (* 11 k)))
 (let ((?x726 (* 9 c)))
 (let ((?x338 (+ ?x726 ?x740 ?x732 ?x834 ?x497 ?x867 ?x895 ?x882 ?x819 ?x889 ?x891 ?x893 ?x894)))
 (let ((?x265 (* (- 1) ?x52)))
 (let ((?x264 (* (- 2) n)))
 (let ((?x262 (* 3 c)))
 (let (($x555 (not (= (+ ?x262 (* 3 k) ?x264 ?x265 (* (- 1) ?x374)) 2))))
 (let ((?x162 (* 9 (* c n))))
 (let ((?x225 (* (- 1) ?x46)))
 (let ((?x224 (* (- 9) n)))
 (let ((?x437 (* 5 m)))
 (let ((?x525 (+ (* 27 c) (* 32 k) ?x437 ?x224 ?x225 (* 9 ?x52) ?x162 (* (- 2) (* k m)) (* (- 1) (* m m)))))
 (let (($x529 (not (= ?x525 13))))
 (let (($x145 (= (+ m (* (- 6) n)) 6)))
 (let (($x363 (not $x145)))
 (let (($x357 (or (not (= (+ k m ?x224 (* (- 3) (* n n))) 6)) $x363 $x529 $x555 (not (= (* ?x338 ?x539) 0)))))
 (let (($x303 (= (+ k (* (- 3) n) (* (- 3) (* n n))) 0)))
 (let (($x267 (= (+ ?x262 k ?x264 ?x265) 0)))
 (let (($x222 (= (+ (* 18 c) (* 5 k) ?x224 ?x225 ?x162) 4)))
 (let (($x328 (and $x145 $x222 $x267 $x303 $x357)))
 (let (($x335 (= (+ ?x262 (* 4 k) (* (- 1) (* ?x387 ?x74)) m ?x264) 2)))
 (let ((?x61 (* 3 n)))
 (let ((?x848 (* (- 1) m)))
 (let ((?x870 (* (- 1) k)))
 (let (($x541 (not (= (+ (* 3 (* ?x387 ?x387)) ?x870 ?x848 ?x61) (- 3)))))
 (let ((?x355 (+ ?x497 ?x726 ?x740 ?x732 (* (- 3) (* (+ 6 m) (+ 6 m) ?x71 ?x71)))))
 (let (($x908 (= (* ?x355 (+ 2 ?x233 (* (- 4) k) (* ?x387 ?x74) ?x848 ?x56)) 0)))
 (let (($x536 (not $x908)))
 (let ((?x37 (* 18 c)))
 (let ((?x382 (+ ?x37 (* 23 k) (* 9 (* ?x387 ?x71)) ?x437 ?x224 (* (- 1) (* ?x74 ?x74)))))
 (let (($x411 (= (+ (* 3 (* n n)) ?x870 ?x61) 0)))
 (let (($x350 (= (+ ?x37 (* 9 (* n c)) (* 5 k) ?x224 ?x225) 4)))
 (let (($x349 (and $x145 $x350 (= (+ ?x262 (* (- 1) (* n k)) k ?x264) 0) $x411 (or $x363 (not (= ?x382 13)) $x536 $x541 (not $x335)))))
 (rewrite (= $x349 $x328))))))))))))))))))))))))))))))))))))))))))))))))))))))))
 ))
 (let (($x764 (exists ((c Int) (k Int) (m Int) (n Int) )(! (let ((?x61 (* 3 n)))
 (let ((?x848 (* (- 1) m)))
 (let ((?x870 (* (- 1) k)))
 (let (($x531 (= (+ (* 3 (* (+ 1 n) (+ 1 n))) ?x870 ?x848 ?x61) (- 3))))
 (let (($x541 (not $x531)))
 (let ((?x56 (* 2 n)))
 (let ((?x74 (+ k m)))
 (let ((?x387 (+ 1 n)))
 (let ((?x772 (* ?x387 ?x74)))
 (let ((?x869 (* (- 4) k)))
 (let ((?x233 (* (- 3) c)))
 (let ((?x336 (* (- 3) (* (+ 6 m) (+ 6 m) (+ c k) (+ c k)))))
 (let ((?x732 (* 2 m)))
 (let ((?x740 (* 11 k)))
 (let ((?x726 (* 9 c)))
 (let ((?x497 (* 9 (* ?x387 ?x387 ?x74 ?x74 (+ c k) (+ c k)))))
 (let ((?x793 (* (+ ?x497 ?x726 ?x740 ?x732 ?x336) (+ 2 ?x233 ?x869 ?x772 ?x848 ?x56))))
 (let (($x536 (not (= ?x793 0))))
 (let ((?x80 (* ?x74 ?x74)))
 (let ((?x45 (* 9 n)))
 (let ((?x208 (* (- 18) c)))
 (let ((?x455 (+ ?x208 (* (- 23) k) (* (- 9) (* ?x387 (+ c k))) (* (- 5) m) ?x45 ?x80)))
 (let (($x145 (= (+ m (* (- 6) n)) 6)))
 (let (($x363 (not $x145)))
 (let (($x502 (or $x363 (not (= ?x455 (- 13))) (not (= (+ ?x233 ?x869 ?x772 ?x848 ?x56) (- 2))) $x536 $x541)))
 (let (($x411 (= (+ (* 3 (* n n)) ?x870 ?x61) 0)))
 (let (($x506 (= (+ ?x208 (* (- 9) (* n c)) (* (- 5) k) ?x45 (* k k)) (- 4))))
 (and $x145 $x506 (= (+ ?x233 (* n k) ?x870 ?x56) 0) $x411 $x502)))))))))))))))))))))))))))) :qid k!38))
 ))
 (let ((?x325 (lambda ((c Int) (k Int) (m Int) (n Int) )(let ((?x264 (* (- 2) n)))
 (let ((?x262 (* 3 c)))
 (let ((?x323 (+ ?x262 (* 4 k) (* (- 1) (* (+ 1 n) (+ k m))) m ?x264)))
 (let ((?x61 (* 3 n)))
 (let ((?x848 (* (- 1) m)))
 (let ((?x870 (* (- 1) k)))
 (let (($x531 (= (+ (* 3 (* (+ 1 n) (+ 1 n))) ?x870 ?x848 ?x61) (- 3))))
 (let (($x541 (not $x531)))
 (let ((?x56 (* 2 n)))
 (let ((?x74 (+ k m)))
 (let ((?x387 (+ 1 n)))
 (let ((?x772 (* ?x387 ?x74)))
 (let ((?x869 (* (- 4) k)))
 (let ((?x233 (* (- 3) c)))
 (let ((?x336 (* (- 3) (* (+ 6 m) (+ 6 m) (+ c k) (+ c k)))))
 (let ((?x732 (* 2 m)))
 (let ((?x740 (* 11 k)))
 (let ((?x726 (* 9 c)))
 (let ((?x497 (* 9 (* ?x387 ?x387 ?x74 ?x74 (+ c k) (+ c k)))))
 (let ((?x793 (* (+ ?x497 ?x726 ?x740 ?x732 ?x336) (+ 2 ?x233 ?x869 ?x772 ?x848 ?x56))))
 (let (($x536 (not (= ?x793 0))))
 (let ((?x224 (* (- 9) n)))
 (let ((?x437 (* 5 m)))
 (let ((?x37 (* 18 c)))
 (let ((?x382 (+ ?x37 (* 23 k) (* 9 (* ?x387 (+ c k))) ?x437 ?x224 (* (- 1) (* ?x74 ?x74)))))
 (let (($x145 (= (+ m (* (- 6) n)) 6)))
 (let (($x363 (not $x145)))
 (let (($x411 (= (+ (* 3 (* n n)) ?x870 ?x61) 0)))
 (let ((?x46 (* k k)))
 (let ((?x225 (* (- 1) ?x46)))
 (let ((?x41 (* 5 k)))
 (let (($x349 (and $x145 (= (+ ?x37 (* 9 (* n c)) ?x41 ?x224 ?x225) 4) (= (+ ?x262 (* (- 1) (* n k)) k ?x264) 0) $x411 (or $x363 (not (= ?x382 13)) $x536 $x541 (not (= ?x323 2))))))
 (let ((?x80 (* ?x74 ?x74)))
 (let ((?x45 (* 9 n)))
 (let ((?x208 (* (- 18) c)))
 (let ((?x455 (+ ?x208 (* (- 23) k) (* (- 9) (* ?x387 (+ c k))) (* (- 5) m) ?x45 ?x80)))
 (let (($x502 (or $x363 (not (= ?x455 (- 13))) (not (= (+ ?x233 ?x869 ?x772 ?x848 ?x56) (- 2))) $x536 $x541)))
 (let (($x506 (= (+ ?x208 (* (- 9) (* n c)) (* (- 5) k) ?x45 ?x46) (- 4))))
 (let (($x388 (and $x145 $x506 (= (+ ?x233 (* n k) ?x870 ?x56) 0) $x411 $x502)))
 (rewrite (= $x388 $x349))))))))))))))))))))))))))))))))))))))))))
 ))
 (let (($x110 (exists ((c Int) (k Int) (m Int) (n Int) )(! (let ((?x102 (+ m 6)))
 (let ((?x71 (+ c k)))
 (let ((?x66 (+ n 1)))
 (let ((?x74 (+ k m)))
 (let ((?x101 (+ (* 9 ?x71 ?x71 ?x74 ?x74 ?x66 ?x66) (* 9 ?x71) (* 2 ?x74))))
 (let ((?x89 (+ (- (+ (* (- 3) ?x71) (* ?x74 ?x66)) ?x74) (* 2 ?x66))))
 (let ((?x80 (* ?x74 ?x74)))
 (let ((?x78 (- (- (- 4 (* 18 ?x71)) (* 9 ?x71 ?x66)) (* 5 ?x74))))
 (let (($x108 (or (not (= (- (+ (- 6) m 6) (* 6 ?x66)) 0)) (not (= (+ ?x78 (* 9 ?x66) ?x80) 0)) (not (= ?x89 0)) (not (= (+ (- (* 3 ?x66 ?x66) ?x74) (* 3 ?x66)) 0)) (not (= (* ?x89 (- ?x101 (* 3 ?x71 ?x71 ?x102 ?x102))) 0)))))
 (let (($x58 (= (+ (- (+ (* (- 3) c) (* k n)) k) (* 2 n)) 0)))
 (let ((?x46 (* k k)))
 (let ((?x45 (* 9 n)))
 (let ((?x41 (* 5 k)))
 (let ((?x47 (+ (- (- (- 4 (* 18 c)) (* 9 c n)) ?x41) ?x45 ?x46)))
 (and (= (- (+ (- 6) m) (* 6 n)) 0) (= ?x47 0) $x58 (= (+ (- (* 3 n n) k) (* 3 n)) 0) $x108))))))))))))))) :qid k!38))
 ))
 (let ((?x766 (lambda ((c Int) (k Int) (m Int) (n Int) )(let ((?x61 (* 3 n)))
 (let ((?x848 (* (- 1) m)))
 (let ((?x870 (* (- 1) k)))
 (let (($x531 (= (+ (* 3 (* (+ 1 n) (+ 1 n))) ?x870 ?x848 ?x61) (- 3))))
 (let (($x541 (not $x531)))
 (let ((?x56 (* 2 n)))
 (let ((?x74 (+ k m)))
 (let ((?x387 (+ 1 n)))
 (let ((?x772 (* ?x387 ?x74)))
 (let ((?x869 (* (- 4) k)))
 (let ((?x233 (* (- 3) c)))
 (let ((?x336 (* (- 3) (* (+ 6 m) (+ 6 m) (+ c k) (+ c k)))))
 (let ((?x732 (* 2 m)))
 (let ((?x740 (* 11 k)))
 (let ((?x726 (* 9 c)))
 (let ((?x497 (* 9 (* ?x387 ?x387 ?x74 ?x74 (+ c k) (+ c k)))))
 (let ((?x793 (* (+ ?x497 ?x726 ?x740 ?x732 ?x336) (+ 2 ?x233 ?x869 ?x772 ?x848 ?x56))))
 (let (($x536 (not (= ?x793 0))))
 (let ((?x80 (* ?x74 ?x74)))
 (let ((?x45 (* 9 n)))
 (let ((?x208 (* (- 18) c)))
 (let ((?x455 (+ ?x208 (* (- 23) k) (* (- 9) (* ?x387 (+ c k))) (* (- 5) m) ?x45 ?x80)))
 (let (($x145 (= (+ m (* (- 6) n)) 6)))
 (let (($x363 (not $x145)))
 (let (($x502 (or $x363 (not (= ?x455 (- 13))) (not (= (+ ?x233 ?x869 ?x772 ?x848 ?x56) (- 2))) $x536 $x541)))
 (let (($x411 (= (+ (* 3 (* n n)) ?x870 ?x61) 0)))
 (let (($x506 (= (+ ?x208 (* (- 9) (* n c)) (* (- 5) k) ?x45 (* k k)) (- 4))))
 (let (($x388 (and $x145 $x506 (= (+ ?x233 (* n k) ?x870 ?x56) 0) $x411 $x502)))
 (let ((?x102 (+ m 6)))
 (let ((?x71 (+ c k)))
 (let ((?x101 (+ (* 9 ?x71 ?x71 ?x74 ?x74 (+ n 1) (+ n 1)) (* 9 ?x71) (* 2 ?x74))))
 (let ((?x89 (+ (- (+ (* (- 3) ?x71) (* ?x74 (+ n 1))) ?x74) (* 2 (+ n 1)))))
 (let ((?x95 (+ (- (* 3 (+ n 1) (+ n 1)) ?x74) (* 3 (+ n 1)))))
 (let ((?x78 (- (- (- 4 (* 18 ?x71)) (* 9 ?x71 (+ n 1))) (* 5 ?x74))))
 (let (($x70 (not (= (- (+ (- 6) m 6) (* 6 (+ n 1))) 0))))
 (let (($x108 (or $x70 (not (= (+ ?x78 (* 9 (+ n 1)) ?x80) 0)) (not (= ?x89 0)) (not (= ?x95 0)) (not (= (* ?x89 (- ?x101 (* 3 ?x71 ?x71 ?x102 ?x102))) 0)))))
 (let ((?x46 (* k k)))
 (let ((?x41 (* 5 k)))
 (let ((?x47 (+ (- (- (- 4 (* 18 c)) (* 9 c n)) ?x41) ?x45 ?x46)))
 (let (($x109 (and (= (- (+ (- 6) m) (* 6 n)) 0) (= ?x47 0) (= (+ (- (+ (* (- 3) c) (* k n)) k) ?x56) 0) (= (+ (- (* 3 n n) k) ?x61) 0) $x108)))
 (rewrite (= $x109 $x388)))))))))))))))))))))))))))))))))))))))))))
 ))
 (let ((@x111 (asserted $x110)))
 (let ((@x129 (mp (mp @x111 (quant-intro (proof-bind ?x766) (= $x110 $x764)) $x764) (rewrite (= $x764 $x764)) $x764)))
 (let ((@x609 (mp (mp @x129 (quant-intro (proof-bind ?x325) (= $x764 $x352)) $x352) (quant-intro (proof-bind ?x608) (= $x352 $x600)) $x600)))
 (let ((@x752 (mp (mp~ @x609 (sk (~ $x600 $x783)) $x783) (rewrite (= $x783 $x341)) $x341)))
 (let ((@x767 (and-elim @x752 $x812)))
 (let ((@x491 (unit-resolution ((_ th-lemma arith triangle-eq) (or (not $x812) $x801)) @x767 $x801)))
 (let (($x840 (>= ?x898 0)))
 (let ((@x727 (unit-resolution ((_ th-lemma arith triangle-eq) (or (not $x812) $x840)) @x767 $x840)))
 (let (($x841 (<= ?x850 0)))
 (let ((@x873 (and-elim @x752 $x805)))
 (let ((@x534 (unit-resolution ((_ th-lemma arith triangle-eq) (or (not $x805) $x841)) @x873 $x841)))
 (let (($x316 (>= ?x850 0)))
 (let ((@x468 (unit-resolution ((_ th-lemma arith triangle-eq) (or (not $x805) $x316)) @x873 $x316)))
 (let (($x857 (<= ?x409 (- 4))))
 (let ((@x417 (and-elim @x752 $x231)))
 (let ((@x273 (unit-resolution ((_ th-lemma arith triangle-eq) (or (not $x231) $x857)) @x417 $x857)))
 (let (($x807 (>= ?x409 (- 4))))
 (let ((@x503 (unit-resolution ((_ th-lemma arith triangle-eq) (or (not $x231) $x807)) @x417 $x807)))
 (let (($x855 (<= ?x774 (- 6))))
 (let ((@x754 (and-elim @x752 $x773)))
 (let ((@x198 (unit-resolution ((_ th-lemma arith triangle-eq) (or $x416 $x855)) @x754 $x855)))
 (let (($x843 (>= ?x774 (- 6))))
 (let ((@x458 (unit-resolution ((_ th-lemma arith triangle-eq) (or $x416 $x843)) @x754 $x843)))
 (let ((@x2050 ((_ th-lemma arith) (hypothesis (not $x1953)) @x458 @x198 @x468 @x534 @x727 @x491 @x727 @x491 @x468 @x534 @x727 @x491 @x468 @x534 @x458 @x198 @x468 @x534 @x468 @x534 @x503 @x273 @x468 @x534 @x727 @x491 false)))
 (let ((@x2026 (lemma @x2050 $x1953)))
 (let (($x1991 (<= c!3 68)))
 (let ((@x1940 (hypothesis $x1991)))
 (let (($x1961 (>= c!3 68)))
 (let ((?x1943 (+ (* 12 n!0) ?x191 (* (- 7) ?x509) (* 2 ?x821) ?x824 ?x842 (* (- 6) k!2))))
 (let (($x1523 (<= n!0 2)))
 (let ((@x1436 (hypothesis $x1523)))
 (let (($x1050 (<= m!1 12)))
 (let ((@x1045 (hypothesis $x1050)))
 (let (($x835 (>= c!3 0)))
 (let (($x571 (>= c!3 (- 1))))
 (let (($x747 (>= k!2 0)))
 (let ((@x808 (hypothesis (not $x747))))
 (let ((@x768 (lemma ((_ th-lemma arith) @x808 @x534 @x808 @x534 @x808 @x534 false) $x747)))
 (let ((@x538 ((_ th-lemma arith) (hypothesis (not $x571)) @x768 @x468 @x534 @x727 @x491 @x468 @x534 @x458 @x198 @x468 @x534 @x458 @x198 @x468 @x534 @x468 @x534 @x503 @x273 false)))
 (let ((@x179 (lemma @x538 $x571)))
 (let (($x279 (<= k!2 0)))
 (let ((@x280 (hypothesis $x279)))
 (let (($x462 (>= ?x509 1)))
 (let (($x423 (<= ?x748 1)))
 (let (($x235 (not $x423)))
 (let ((@x177 (hypothesis (not $x462))))
 (let (($x492 (>= ?x824 0)))
 (let ((@x376 (lemma ((_ th-lemma arith farkas 1) (hypothesis (not $x492)) false) $x492)))
 (let ((@x340 (hypothesis $x423)))
 (let (($x770 (>= n!0 0)))
 (let ((@x803 (hypothesis (not $x770))))
 (let ((@x820 (lemma ((_ th-lemma arith farkas 1 -3/2 1/6 -1/6 -1/2 1/6 1 1) @x727 @x177 @x376 @x273 @x803 @x768 @x803 @x768 false) (or $x770 $x462))))
 (let ((@x490 (unit-resolution @x820 @x177 $x770)))
 (let (($x878 (<= ?x846 1)))
 (let (($x440 (not $x878)))
 (let ((@x601 (hypothesis $x878)))
 (let ((@x471 ((_ th-lemma arith) @x468 @x534 @x458 @x198 @x458 @x198 @x490 @x768 @x177 @x376 @x273 @x601 @x727 @x491 @x490 @x768 @x177 @x376 @x273 @x601 @x490 @x768 @x177 @x376 @x273 @x601 @x503 @x273 false)))
 (let ((@x367 ((_ th-lemma arith farkas 3/2 9 1 4 13/2 13/2 13/2 1) (unit-resolution (lemma @x471 (or $x440 $x462)) @x177 $x440) @x177 @x273 @x340 @x490 @x340 @x727 @x376 false)))
 (let ((@x591 (unit-resolution (lemma @x367 (or $x235 $x462)) @x177 $x235)))
 (let ((@x343 (hypothesis $x235)))
 (let ((@x484 (hypothesis (not $x835))))
 (let (($x540 (>= ?x828 0)))
 (let ((@x905 (unit-resolution (lemma ((_ th-lemma arith farkas 1 1) (hypothesis (not $x540)) @x343 false) (or $x540 $x423)) @x343 $x540)))
 (let ((@x910 (lemma ((_ th-lemma arith) @x343 @x484 @x905 @x534 @x491 @x491 @x343 @x484 @x343 false) (or $x835 $x423))))
 (let ((@x592 (unit-resolution @x910 @x591 $x835)))
 (let ((@x593 ((_ th-lemma arith) @x458 @x198 @x468 @x534 @x468 @x534 @x592 @x177 @x591 @x468 @x534 @x458 @x198 @x468 @x534 @x727 @x491 @x503 @x273 @x592 @x177 @x591 @x592 @x177 @x591 @x468 @x534 false)))
 (let ((@x594 (lemma @x593 $x462)))
 (let ((@x236 (lemma ((_ th-lemma arith farkas 1/9 -1 2 -2/9 -2/9 2/9 1 1 1) @x768 @x491 @x594 @x768 @x280 @x503 @x768 @x280 @x179 false) (not $x279))))
 (let ((@x278 (lemma ((_ th-lemma arith farkas 2 1 -2 1 1 1 1 1 1) @x594 @x179 @x484 @x727 @x236 @x594 @x179 @x484 @x236 false) $x835)))
 (let ((@x120 (lemma ((_ th-lemma arith farkas 1 1 1) @x594 @x278 (hypothesis (<= c!3 0)) false) (not (<= c!3 0)))))
 (let ((@x345 (hypothesis (not $x540))))
 (let ((@x815 (lemma ((_ th-lemma arith farkas 1 1 1 1) @x345 @x768 @x345 @x468 false) $x540)))
 (let (($x209 (<= k!2 4)))
 (let ((@x1052 (hypothesis $x209)))
 (let (($x942 (<= k!2 3)))
 (let ((@x949 (hypothesis $x942)))
 (let ((?x307 (+ n!0 ?x828)))
 (let (($x630 (>= ?x307 1)))
 (let ((@x253 (lemma ((_ th-lemma arith farkas -3 1 1) (hypothesis (not $x630)) @x468 @x236 false) $x630)))
 (let ((@x950 ((_ th-lemma arith farkas 2/3 1/9 1/9 1/9 1/9 1/9 1/9 2 1/9 1 5/9 1) @x253 @x534 @x253 @x949 @x534 @x253 @x949 @x120 @x503 @x594 @x534 @x815 false)))
 (let ((@x952 (lemma @x950 (not $x942))))
 (let ((@x1055 (lemma ((_ th-lemma arith farkas 1/3 2/9 -1/9 -1/9 -1/9 -1/9 1/9 1 2 1) @x534 @x236 @x952 @x1052 @x952 @x1052 @x503 @x594 @x120 @x815 false) (not $x209))))
 (let ((@x971 ((_ th-lemma arith farkas 1/6 1/6 -1/3 -1/3 -1/3 -1/3 -1/3 -1/3 -1/3 -1/3 -1/3 -1/3 -1/3 1 1 1 1) @x1045 @x198 @x468 @x727 @x120 @x534 ((_ th-lemma arith gomory-cut 1 1) @x1055 @x468 (>= ?x307 2)) @x1045 @x198 @x594 @x120 @x1045 @x198 @x594 @x120 @x1045 @x198 false)))
 (let ((@x997 (lemma @x971 (not $x1050))))
 (let ((@x1323 ((_ th-lemma arith gcd-test -4 -4 -4 -4 -4 -4 -4 -4 4/3 4/3 -7/9 -7/9 -14/3 -1/3 -1/3 -1/3 -1/3 -1/3 -1/3 1/3 1/3) @x458 @x997 @x458 @x997 @x1436 @x458 @x997 @x1436 @x468 @x534 @x458 @x997 @x1436 @x458 @x997 @x1436 @x458 @x997 @x1436 @x727 @x491 false)))
 (let ((@x1535 (lemma @x1323 (not $x1523))))
 (let (($x1795 (>= ?x821 241)))
 (let ((@x1786 (hypothesis (not $x1795))))
 (let (($x1794 (<= k!2 60)))
 (let ((@x1799 (hypothesis $x1794)))
 (let (($x1737 (>= (+ ?x836 (* (- 1) c!3) ?x821 (* 2 ?x828) ?x887) 162)))
 (let (($x1549 (<= ?x748 4)))
 (let ((@x1439 (hypothesis $x1549)))
 (let ((@x1481 ((_ th-lemma arith) @x1535 @x1439 @x1535 @x1439 @x503 @x273 @x1535 @x1439 @x1535 @x1439 @x1535 @x1439 @x727 @x491 @x468 @x534 @x1535 @x534 @x1535 @x1439 @x468 @x1535 @x1439 false)))
 (let ((@x1731 (lemma @x1481 (not $x1549))))
 (let ((@x1785 ((_ th-lemma arith farkas -1/2 -1/2 -1 3/2 1 1 1) @x1731 @x727 @x468 (hypothesis (not $x1737)) @x1731 @x1731 @x534 false)))
 (let ((@x1806 (lemma @x1785 $x1737)))
 (let ((@x1774 (lemma ((_ th-lemma arith farkas 127/121 -3 6/121 6/121 6/121 -9/121 3/121 1) @x534 @x1731 @x534 @x1731 @x1799 @x1806 @x491 @x1799 false) (not $x1794))))
 (let ((@x1947 ((_ th-lemma arith gomory-cut 1/7 1/2 6/7 3/7 1/2 3/7) @x1774 @x503 @x727 (lemma ((_ th-lemma arith farkas 1 3/2 1/2 1/2 1/2 1) @x534 @x1806 @x1774 @x1786 @x491 @x1786 false) $x1795) @x468 @x1535 (>= ?x1943 992))))
 (let ((@x1979 ((_ th-lemma arith) @x1947 (hypothesis (not $x1961)) @x458 @x198 @x468 @x534 @x727 @x491 @x468 @x534 @x503 @x273 @x727 @x491 @x468 @x534 @x727 @x491 @x468 @x534 @x727 @x491 @x468 @x534 @x503 @x273 false)))
 (let ((@x1980 (lemma @x1979 $x1961)))
 (let ((@x1964 ((_ th-lemma arith) @x468 @x534 @x503 @x273 @x468 @x534 @x503 @x273 @x1980 @x1940 @x1980 @x1940 @x503 @x273 @x1980 @x1940 @x1980 @x1940 @x1980 @x1940 @x727 @x491 @x1980 @x1940 @x1980 @x1940 @x1980 @x1940 @x727 @x491 @x1980 @x1940 @x503 @x273 @x1980 @x1940 @x1980 @x1940 @x1980 @x1940 @x1980 @x1940 @x1980 @x1940 false)))
 (let ((@x1954 (lemma @x1964 (not $x1991))))
 ((_ th-lemma arith) @x468 @x534 @x458 @x198 @x1954 @x2026 @x1954 @x2026 @x1954 @x2026 @x1954 @x2026 @x468 @x534 @x1954 @x2026 @x1954 @x2026 @x1954 @x2026 @x1954 @x2026 @x1954 @x2026 @x1954 @x2026 @x1954 @x2026 @x1954 @x2026 @x458 @x198 @x468 @x534 @x1954 @x2026 @x727 @x491 @x468 @x534 @x468 @x534 @x1954 @x2026 @x1954 @x2026 @x727 @x491 @x1954 @x2026 @x503 @x273 @x1954 @x2026 false))))))))))))))))))))))))))))))))))))))))))))))))))))))))))))))))))))))))))))))))))))))))))))))))))))))))))))))))))))))))))))))))))))))))))))))))))))))))))))))))))))))))

(:added-eqs                 96
 :arith-assert-diseq        115
 :arith-assert-lower        1283
 :arith-assert-upper        425
 :arith-bound-prop          5
 :arith-branch-var          42
 :arith-conflicts           60
 :arith-eq-adapter          9
 :arith-fixed-eqs           134
 :arith-gcd-tests           323
 :arith-gomory-cuts         25
 :arith-grobner             44
 :arith-ineq-splits         42
 :arith-max-min             4944
 :arith-nonlinear-bounds    333
 :arith-nonlinear-horner    548
 :arith-num-rows            18
 :arith-offset-eqs          8
 :arith-patches             95
 :arith-patches_succ        12
 :arith-pivots              1234
 :arith-pseudo-nonlinear    121
 :arith-row-summations      6184
 :arith-tableau-max-columns 72
 :arith-tableau-max-rows    18
 :conflicts                 62
 :decisions                 379
 :del-clause                55
 :final-checks              209
 :max-memory                4.18
 :memory                    3.36
 :minimized-lits            6
 :mk-bool-var               239
 :mk-clause                 65
 :num-allocs                6807417
 :num-checks                1
 :propagations              204
 :rlimit-count              396446
 :time                      0.10
 :total-time                0.12)
